c description: Random 3-CNF over 19 variables and 81 clauses
c generator: CNFgen (0.9.2)
c copyright: (C) 2012-2022 Massimo Lauria <massimo.lauria@uniroma1.it>
c url: https://massimolauria.net/cnfgen
c command line: cnfgen --output CNF_4.28/19_bit_81_745.cnf randkcnf 3 19 81
c
p cnf 19 81
1 4 9 0
-4 -9 13 0
2 -7 16 0
-9 -16 17 0
-6 7 10 0
9 -10 -14 0
3 -11 -14 0
7 13 -19 0
-6 8 -11 0
1 -3 -19 0
-5 9 -18 0
-7 10 12 0
-2 -13 -14 0
-3 7 -9 0
5 -10 12 0
12 18 19 0
-2 5 -17 0
12 13 -16 0
10 18 -19 0
-9 10 15 0
-4 9 -11 0
3 4 16 0
-3 7 14 0
2 8 9 0
-2 8 19 0
-4 -7 10 0
-5 13 14 0
2 12 -16 0
1 12 -16 0
9 -14 17 0
10 13 17 0
-2 -10 -14 0
-1 2 14 0
10 -11 14 0
1 15 19 0
7 -9 -11 0
6 10 -16 0
4 -9 10 0
3 8 -15 0
11 -15 17 0
9 -11 15 0
-2 10 -16 0
6 -9 -12 0
-7 9 17 0
-2 5 18 0
5 -9 -14 0
1 6 -11 0
12 16 -17 0
-6 -14 15 0
1 -2 -15 0
-5 12 13 0
-6 -11 -17 0
-14 15 17 0
5 10 11 0
4 12 18 0
-2 -11 -17 0
-4 8 19 0
2 -7 13 0
1 -8 16 0
13 -16 17 0
-6 13 18 0
-4 13 -18 0
-7 10 17 0
11 -13 15 0
-10 12 -14 0
5 6 19 0
5 17 18 0
1 -2 16 0
-1 -3 4 0
1 -9 18 0
2 11 -12 0
1 -16 19 0
10 -16 17 0
8 -11 -18 0
-9 11 16 0
11 17 18 0
2 13 -14 0
6 -14 17 0
-1 3 -17 0
8 9 -12 0
-2 -7 -11 0
